(set-logic QF_LRA)
(declare-fun X0 () Real )
(declare-fun Y0 () Real )
(declare-fun X1 () Real )
(declare-fun Y1 () Real )
(declare-fun X2 () Real )
(declare-fun Y2 () Real )
(declare-fun X3 () Real )
(declare-fun Y3 () Real )
(declare-fun X4 () Real )
(declare-fun Y4 () Real )
(declare-fun X5 () Real )
(declare-fun Y5 () Real )
(declare-fun X6 () Real )
(declare-fun Y6 () Real )
(declare-fun X7 () Real )
(declare-fun Y7 () Real )
(declare-fun X8 () Real )
(declare-fun Y8 () Real )
(declare-fun Z () Real )
(declare-fun k () Real )
(assert (let
(( $goal (>= Z k) ))
(let
((
$phi ( and 
( or ( <= ( + X0 18 ) X1 )  ( <= ( + X1 51 ) X0 )  ( <= ( + Y0 30 ) Y1 )  ( <= ( + Y1 26 ) Y0 )  )
( or ( <= ( + X0 18 ) X2 )  ( <= ( + X2 23 ) X0 )  ( <= ( + Y0 30 ) Y2 )  ( <= ( + Y2 98 ) Y0 )  )
( or ( <= ( + X0 18 ) X3 )  ( <= ( + X3 27 ) X0 )  ( <= ( + Y0 30 ) Y3 )  ( <= ( + Y3 35 ) Y0 )  )
( or ( <= ( + X0 18 ) X4 )  ( <= ( + X4 75 ) X0 )  ( <= ( + Y0 30 ) Y4 )  ( <= ( + Y4 80 ) Y0 )  )
( or ( <= ( + X0 18 ) X5 )  ( <= ( + X5 3 ) X0 )  ( <= ( + Y0 30 ) Y5 )  ( <= ( + Y5 62 ) Y0 )  )
( or ( <= ( + X0 18 ) X6 )  ( <= ( + X6 69 ) X0 )  ( <= ( + Y0 30 ) Y6 )  ( <= ( + Y6 42 ) Y0 )  )
( or ( <= ( + X0 18 ) X7 )  ( <= ( + X7 65 ) X0 )  ( <= ( + Y0 30 ) Y7 )  ( <= ( + Y7 53 ) Y0 )  )
( or ( <= ( + X0 18 ) X8 )  ( <= ( + X8 29 ) X0 )  ( <= ( + Y0 30 ) Y8 )  ( <= ( + Y8 68 ) Y0 )  )
( or ( <= ( + X1 51 ) X2 )  ( <= ( + X2 23 ) X1 )  ( <= ( + Y1 26 ) Y2 )  ( <= ( + Y2 98 ) Y1 )  )
( or ( <= ( + X1 51 ) X3 )  ( <= ( + X3 27 ) X1 )  ( <= ( + Y1 26 ) Y3 )  ( <= ( + Y3 35 ) Y1 )  )
( or ( <= ( + X1 51 ) X4 )  ( <= ( + X4 75 ) X1 )  ( <= ( + Y1 26 ) Y4 )  ( <= ( + Y4 80 ) Y1 )  )
( or ( <= ( + X1 51 ) X5 )  ( <= ( + X5 3 ) X1 )  ( <= ( + Y1 26 ) Y5 )  ( <= ( + Y5 62 ) Y1 )  )
( or ( <= ( + X1 51 ) X6 )  ( <= ( + X6 69 ) X1 )  ( <= ( + Y1 26 ) Y6 )  ( <= ( + Y6 42 ) Y1 )  )
( or ( <= ( + X1 51 ) X7 )  ( <= ( + X7 65 ) X1 )  ( <= ( + Y1 26 ) Y7 )  ( <= ( + Y7 53 ) Y1 )  )
( or ( <= ( + X1 51 ) X8 )  ( <= ( + X8 29 ) X1 )  ( <= ( + Y1 26 ) Y8 )  ( <= ( + Y8 68 ) Y1 )  )
( or ( <= ( + X2 23 ) X3 )  ( <= ( + X3 27 ) X2 )  ( <= ( + Y2 98 ) Y3 )  ( <= ( + Y3 35 ) Y2 )  )
( or ( <= ( + X2 23 ) X4 )  ( <= ( + X4 75 ) X2 )  ( <= ( + Y2 98 ) Y4 )  ( <= ( + Y4 80 ) Y2 )  )
( or ( <= ( + X2 23 ) X5 )  ( <= ( + X5 3 ) X2 )  ( <= ( + Y2 98 ) Y5 )  ( <= ( + Y5 62 ) Y2 )  )
( or ( <= ( + X2 23 ) X6 )  ( <= ( + X6 69 ) X2 )  ( <= ( + Y2 98 ) Y6 )  ( <= ( + Y6 42 ) Y2 )  )
( or ( <= ( + X2 23 ) X7 )  ( <= ( + X7 65 ) X2 )  ( <= ( + Y2 98 ) Y7 )  ( <= ( + Y7 53 ) Y2 )  )
( or ( <= ( + X2 23 ) X8 )  ( <= ( + X8 29 ) X2 )  ( <= ( + Y2 98 ) Y8 )  ( <= ( + Y8 68 ) Y2 )  )
( or ( <= ( + X3 27 ) X4 )  ( <= ( + X4 75 ) X3 )  ( <= ( + Y3 35 ) Y4 )  ( <= ( + Y4 80 ) Y3 )  )
( or ( <= ( + X3 27 ) X5 )  ( <= ( + X5 3 ) X3 )  ( <= ( + Y3 35 ) Y5 )  ( <= ( + Y5 62 ) Y3 )  )
( or ( <= ( + X3 27 ) X6 )  ( <= ( + X6 69 ) X3 )  ( <= ( + Y3 35 ) Y6 )  ( <= ( + Y6 42 ) Y3 )  )
( or ( <= ( + X3 27 ) X7 )  ( <= ( + X7 65 ) X3 )  ( <= ( + Y3 35 ) Y7 )  ( <= ( + Y7 53 ) Y3 )  )
( or ( <= ( + X3 27 ) X8 )  ( <= ( + X8 29 ) X3 )  ( <= ( + Y3 35 ) Y8 )  ( <= ( + Y8 68 ) Y3 )  )
( or ( <= ( + X4 75 ) X5 )  ( <= ( + X5 3 ) X4 )  ( <= ( + Y4 80 ) Y5 )  ( <= ( + Y5 62 ) Y4 )  )
( or ( <= ( + X4 75 ) X6 )  ( <= ( + X6 69 ) X4 )  ( <= ( + Y4 80 ) Y6 )  ( <= ( + Y6 42 ) Y4 )  )
( or ( <= ( + X4 75 ) X7 )  ( <= ( + X7 65 ) X4 )  ( <= ( + Y4 80 ) Y7 )  ( <= ( + Y7 53 ) Y4 )  )
( or ( <= ( + X4 75 ) X8 )  ( <= ( + X8 29 ) X4 )  ( <= ( + Y4 80 ) Y8 )  ( <= ( + Y8 68 ) Y4 )  )
( or ( <= ( + X5 3 ) X6 )  ( <= ( + X6 69 ) X5 )  ( <= ( + Y5 62 ) Y6 )  ( <= ( + Y6 42 ) Y5 )  )
( or ( <= ( + X5 3 ) X7 )  ( <= ( + X7 65 ) X5 )  ( <= ( + Y5 62 ) Y7 )  ( <= ( + Y7 53 ) Y5 )  )
( or ( <= ( + X5 3 ) X8 )  ( <= ( + X8 29 ) X5 )  ( <= ( + Y5 62 ) Y8 )  ( <= ( + Y8 68 ) Y5 )  )
( or ( <= ( + X6 69 ) X7 )  ( <= ( + X7 65 ) X6 )  ( <= ( + Y6 42 ) Y7 )  ( <= ( + Y7 53 ) Y6 )  )
( or ( <= ( + X6 69 ) X8 )  ( <= ( + X8 29 ) X6 )  ( <= ( + Y6 42 ) Y8 )  ( <= ( + Y8 68 ) Y6 )  )
( or ( <= ( + X7 65 ) X8 )  ( <= ( + X8 29 ) X7 )  ( <= ( + Y7 53 ) Y8 )  ( <= ( + Y8 68 ) Y7 )  )
( >= X0 0)
( <= ( + X0 18) Z)
( >= Y0 0)
( <= ( + Y0 30 ) 100)
( >= X1 0)
( <= ( + X1 51) Z)
( >= Y1 0)
( <= ( + Y1 26 ) 100)
( >= X2 0)
( <= ( + X2 23) Z)
( >= Y2 0)
( <= ( + Y2 98 ) 100)
( >= X3 0)
( <= ( + X3 27) Z)
( >= Y3 0)
( <= ( + Y3 35 ) 100)
( >= X4 0)
( <= ( + X4 75) Z)
( >= Y4 0)
( <= ( + Y4 80 ) 100)
( >= X5 0)
( <= ( + X5 3) Z)
( >= Y5 0)
( <= ( + Y5 62 ) 100)
( >= X6 0)
( <= ( + X6 69) Z)
( >= Y6 0)
( <= ( + Y6 42 ) 100)
( >= X7 0)
( <= ( + X7 65) Z)
( >= Y7 0)
( <= ( + Y7 53 ) 100)
( >= X8 0)
( <= ( + X8 29) Z)
( >= Y8 0)
( <= ( + Y8 68 ) 100)
) )
)(=> $phi $goal))))